
  32    4
  10   10   10   10

   0   0   0   0   0   1 2 
   6   0   1   1   1   2 31 3 
   1   1   0   5   7   2 30 4 
   8   2   5   4   0   1 5 
  10   8   6   0   2   1 6 
   2   7   3   0   1   1 7 
   8   5   8   0   4   1 8 
   1   4   1   0   6   1 9 
   6   5   0   6   3   1 10 
   2   3   2   5   0   1 11 
   8   3   0   3   3   1 12 
   6   0   3   5   7   1 13 
   9   0   4   6   6   2 29 14 
   8   3   0   2   6   1 15 
  10   0   2   2   2   1 16 
   9   0   5   2   3   1 17 
   6   5   2   0   5   1 18 
   9   0   6   3   2   1 19 
   2   6   3   5   0   1 20 
  10   5   3   0   4   1 21 
   8   5   5   6   0   1 22 
  10   8   0   4   3   1 23 
   8   2   4   3   0   1 24 
   7   2   8   6   0   1 25 
   7   3   0   7   4   1 26 
   9   4   6   0   5   1 27 
   6   4   0   4   3   1 28 
   3   2   0   3   6   1 32
   7   0   3   2   5   1 32
   9   1   4   0   6   1 32
   5   4   0   4   2   1 32
   0   0   0   0   0   0 
